* Signature: 0x78e611b24fa943c9
NAME idol-model
ROWS
 N  OBJ
 L  c_3098  
COLUMNS
    MARKER    'MARKER'                 'INTORG'
    u_0       c_3098    1
    u_1       c_3098    1
    u_2       c_3098    1
    u_3       c_3098    1
    u_4       c_3098    1
    u_5       c_3098    1
    u_6       c_3098    1
    u_7       c_3098    1
    u_8       c_3098    1
    u_9       c_3098    1
    u_10      c_3098    1
    u_11      c_3098    1
    u_12      c_3098    1
    u_13      c_3098    1
    u_14      c_3098    1
    u_15      c_3098    1
    u_16      c_3098    1
    u_17      c_3098    1
    u_18      c_3098    1
    u_19      c_3098    1
    u_20      c_3098    1
    u_21      c_3098    1
    u_22      c_3098    1
    u_23      c_3098    1
    u_24      c_3098    1
    u_25      c_3098    1
    u_26      c_3098    1
    u_27      c_3098    1
    u_28      c_3098    1
    u_29      c_3098    1
    MARKER    'MARKER'                 'INTEND'
RHS
    RHS1      c_3098    4
BOUNDS
 BV BND1      u_0     
 BV BND1      u_1     
 BV BND1      u_2     
 BV BND1      u_3     
 BV BND1      u_4     
 BV BND1      u_5     
 BV BND1      u_6     
 BV BND1      u_7     
 BV BND1      u_8     
 BV BND1      u_9     
 BV BND1      u_10    
 BV BND1      u_11    
 BV BND1      u_12    
 BV BND1      u_13    
 BV BND1      u_14    
 BV BND1      u_15    
 BV BND1      u_16    
 BV BND1      u_17    
 BV BND1      u_18    
 BV BND1      u_19    
 BV BND1      u_20    
 BV BND1      u_21    
 BV BND1      u_22    
 BV BND1      u_23    
 BV BND1      u_24    
 BV BND1      u_25    
 BV BND1      u_26    
 BV BND1      u_27    
 BV BND1      u_28    
 BV BND1      u_29    
ENDATA
